&CONTROL
  calculation = 'relax'
  etot_conv_thr =   2.0000000000d-05
  forc_conv_thr =   1.0000000000d-04
  max_seconds =   3.4200000000d+03
  outdir = './out/'
  prefix = 'aiida'
  pseudo_dir = './pseudo/'
  tprnfor = .true.
  tstress = .true.
  verbosity = 'high'
/
&SYSTEM
  degauss =   1.0000000000d-02
  ecutrho =   2.4000000000d+02
  ecutwfc =   3.0000000000d+01
  ibrav = 0
  nat = 2
  nosym = .false.
  ntyp = 1
  occupations = 'smearing'
  smearing = 'cold'
/
&ELECTRONS
  conv_thr =   4.0000000000d-10
  electron_maxstep = 80
  mixing_beta =   4.0000000000d-01
/
&IONS
/
ATOMIC_SPECIES
Si     28.0855 Si.pbesol-n-rrkjus_psl.1.0.0.UPF
ATOMIC_POSITIONS angstrom
Si           3.3488982827       2.3680286852       5.8004619750
Si           2.2325988551       1.5786857901       3.8669746500
K_POINTS automatic
14 14 14 0 0 0
CELL_PARAMETERS angstrom
      3.3488982827       0.0000000000       1.9334873250
      1.1162994276       3.1573715803       1.9334873250
      0.0000000000       0.0000000000       3.8669746500
